% demand
num_movements = 28;
loading_factor = [1000, 1300, 1350, 800, 1550, 800, 1250, 950, 950, 1800, 900, 1250, 900, 1500, 800, 1750, 1800, 1150, 1500, 1600, 1050, 850, 1000, 1400, 950, 1350, 1700, 1400];
pickup_time = [0, 0, 1, 1, 1, 2, 2, 3, 5, 5, 6, 7, 8, 8, 8, 8, 9, 9, 9, 10, 11, 11, 12, 12, 12, 13, 13, 13];
delivery_time = [2, 2, 7, 2, 2, 4, 4, 4, 6, 6, 7, 8, 9, 9, 10, 12, 10, 10, 10, 12, 13, 12, 13, 13, 13, 14, 14, 14];

% transporter definition
total_capacity = 7000;
num_decks = 3;
capacity = [3000, 1000, 3000];

% ways out of decks
num_ways_out = 1;
paths_out = array3d(decks, ways_out, decks, [
% ways out of deck d1
2, 3, 0, 

% ways out of deck d2
3, 0, 0, 

% ways out of deck d3
0, 0, 0,	

]);

